NAME          DCAP_2_4_3_500_SS38
ROWS
 N  OBJ
 L  CON1
 L  CON2
 L  CON3
 L  CON4
 L  CON5
 L  CON6
 L  CON7
 L  CON8
 L  CON9
 L  CON10
 L  CON11
 L  CON12
 E  CON13
 E  CON14
 E  CON15
 E  CON16
 E  CON17
 E  CON18
 E  CON19
 E  CON20
 E  CON21
 E  CON22
 E  CON23
 E  CON24
COLUMNS
    x[1,1]    OBJ       6.180167      CON1      1.000000    
    x[1,1]    CON7      -1.000000     CON8      -1.000000   
    x[1,1]    CON9      -1.000000   
    x[1,2]    OBJ       6.563535      CON2      1.000000    
    x[1,2]    CON8      -1.000000     CON9      -1.000000   
    x[1,3]    OBJ       7.443064      CON3      1.000000    
    x[1,3]    CON9      -1.000000   
    x[2,1]    OBJ       6.732585      CON4      1.000000    
    x[2,1]    CON10     -1.000000     CON11     -1.000000   
    x[2,1]    CON12     -1.000000   
    x[2,2]    OBJ       5.039546      CON5      1.000000    
    x[2,2]    CON11     -1.000000     CON12     -1.000000   
    x[2,3]    OBJ       6.054841      CON6      1.000000    
    x[2,3]    CON12     -1.000000   
    MARKER    'MARKER'                'INTORG'
    u[1,1]    OBJ       48.076654     CON1      -1.000000   
    u[1,2]    OBJ       20.066487     CON2      -1.000000   
    u[1,3]    OBJ       32.230043     CON3      -1.000000   
    u[2,1]    OBJ       49.996186     CON4      -1.000000   
    u[2,2]    OBJ       49.466655     CON5      -1.000000   
    u[2,3]    OBJ       27.484319     CON6      -1.000000   
    y[1,1,1]  OBJ       5.994750      CON7      0.570113    
    y[1,1,1]  CON13     1.000000    
    y[1,1,2]  OBJ       5.676790      CON8      0.833906    
    y[1,1,2]  CON14     1.000000    
    y[1,1,3]  OBJ       7.023654      CON9      1.437889    
    y[1,1,3]  CON15     1.000000    
    y[1,2,1]  OBJ       5.485875      CON7      1.394275    
    y[1,2,1]  CON16     1.000000    
    y[1,2,2]  OBJ       8.144163      CON8      1.215056    
    y[1,2,2]  CON17     1.000000    
    y[1,2,3]  OBJ       8.372794      CON9      0.549152    
    y[1,2,3]  CON18     1.000000    
    y[1,3,1]  OBJ       9.950560      CON7      1.150095    
    y[1,3,1]  CON19     1.000000    
    y[1,3,2]  OBJ       9.453876      CON8      0.902599    
    y[1,3,2]  CON20     1.000000    
    y[1,3,3]  OBJ       5.129647      CON9      1.340855    
    y[1,3,3]  CON21     1.000000    
    y[1,4,1]  OBJ       9.158683      CON7      1.303324    
    y[1,4,1]  CON22     1.000000    
    y[1,4,2]  OBJ       8.908929      CON8      1.322137    
    y[1,4,2]  CON23     1.000000    
    y[1,4,3]  OBJ       8.621109      CON9      1.223835    
    y[1,4,3]  CON24     1.000000    
    y[2,1,1]  OBJ       5.621189      CON10     0.570113    
    y[2,1,1]  CON13     1.000000    
    y[2,1,2]  OBJ       5.645992      CON11     0.833906    
    y[2,1,2]  CON14     1.000000    
    y[2,1,3]  OBJ       8.789556      CON12     1.437889    
    y[2,1,3]  CON15     1.000000    
    y[2,2,1]  OBJ       7.956325      CON10     1.394275    
    y[2,2,1]  CON16     1.000000    
    y[2,2,2]  OBJ       5.592880      CON11     1.215056    
    y[2,2,2]  CON17     1.000000    
    y[2,2,3]  OBJ       9.631536      CON12     0.549152    
    y[2,2,3]  CON18     1.000000    
    y[2,3,1]  OBJ       8.283568      CON10     1.150095    
    y[2,3,1]  CON19     1.000000    
    y[2,3,2]  OBJ       8.862105      CON11     0.902599    
    y[2,3,2]  CON20     1.000000    
    y[2,3,3]  OBJ       7.669058      CON12     1.340855    
    y[2,3,3]  CON21     1.000000    
    y[2,4,1]  OBJ       6.678586      CON10     1.303324    
    y[2,4,1]  CON22     1.000000    
    y[2,4,2]  OBJ       5.600377      CON11     1.322137    
    y[2,4,2]  CON23     1.000000    
    y[2,4,3]  OBJ       6.642315      CON12     1.223835    
    y[2,4,3]  CON24     1.000000    
    z[1,1]    OBJ       946.794768    CON13     1.000000    
    z[1,2]    OBJ       502.479957    CON14     1.000000    
    z[1,3]    OBJ       515.992441    CON15     1.000000    
    z[2,1]    OBJ       692.172971    CON16     1.000000    
    z[2,2]    OBJ       719.022477    CON17     1.000000    
    z[2,3]    OBJ       849.368997    CON18     1.000000    
    z[3,1]    OBJ       842.928288    CON19     1.000000    
    z[3,2]    OBJ       909.004875    CON20     1.000000    
    z[3,3]    OBJ       784.875144    CON21     1.000000    
    z[4,1]    OBJ       562.192290    CON22     1.000000    
    z[4,2]    OBJ       949.637806    CON23     1.000000    
    z[4,3]    OBJ       939.560869    CON24     1.000000    
    MARKER    'MARKER'                 'INTEND'
RHS
    RHS       CON1      -0.000000     CON2      -0.000000   
    RHS       CON3      -0.000000     CON4      -0.000000   
    RHS       CON5      -0.000000     CON6      -0.000000   
    RHS       CON7      -0.000000     CON8      -0.000000   
    RHS       CON9      -0.000000     CON10     -0.000000   
    RHS       CON11     -0.000000     CON12     -0.000000   
    RHS       CON13     1.000000      CON14     1.000000    
    RHS       CON15     1.000000      CON16     1.000000    
    RHS       CON17     1.000000      CON18     1.000000    
    RHS       CON19     1.000000      CON20     1.000000    
    RHS       CON21     1.000000      CON22     1.000000    
    RHS       CON23     1.000000      CON24     1.000000    
BOUNDS
 BV BOUND     u[1,1]  
 BV BOUND     u[1,2]  
 BV BOUND     u[1,3]  
 BV BOUND     u[2,1]  
 BV BOUND     u[2,2]  
 BV BOUND     u[2,3]  
 BV BOUND     y[1,1,1]
 BV BOUND     y[1,1,2]
 BV BOUND     y[1,1,3]
 BV BOUND     y[1,2,1]
 BV BOUND     y[1,2,2]
 BV BOUND     y[1,2,3]
 BV BOUND     y[1,3,1]
 BV BOUND     y[1,3,2]
 BV BOUND     y[1,3,3]
 BV BOUND     y[1,4,1]
 BV BOUND     y[1,4,2]
 BV BOUND     y[1,4,3]
 BV BOUND     y[2,1,1]
 BV BOUND     y[2,1,2]
 BV BOUND     y[2,1,3]
 BV BOUND     y[2,2,1]
 BV BOUND     y[2,2,2]
 BV BOUND     y[2,2,3]
 BV BOUND     y[2,3,1]
 BV BOUND     y[2,3,2]
 BV BOUND     y[2,3,3]
 BV BOUND     y[2,4,1]
 BV BOUND     y[2,4,2]
 BV BOUND     y[2,4,3]
 BV BOUND     z[1,1]  
 BV BOUND     z[1,2]  
 BV BOUND     z[1,3]  
 BV BOUND     z[2,1]  
 BV BOUND     z[2,2]  
 BV BOUND     z[2,3]  
 BV BOUND     z[3,1]  
 BV BOUND     z[3,2]  
 BV BOUND     z[3,3]  
 BV BOUND     z[4,1]  
 BV BOUND     z[4,2]  
 BV BOUND     z[4,3]  
ENDATA
